Argumentos: 
./solver.release -i 6 -t 86400 -a 7 -h 86400 -w Testes/R1-i6 -m R1_modeloCom2345.mod -o R1_modeloCom2345.mod 
Seed: 1622927738
hidden-TXT/Sc-n035w4.txt
hidden-TXT/H0-n035w4-1.txt
hidden-TXT/WD-n035w4-0.txt hidden-TXT/WD-n035w4-6.txt hidden-TXT/WD-n035w4-9.txt hidden-TXT/WD-n035w4-2.txt 
Reading model section from R1_modeloCom2345.mod...
367 lines were read
Reading data section from Testes/R1-i6/6.dat...
7248 lines were read
Generating obj...
Generating H1turnoDia...
Generating H2coberturaMinima...
Generating H3AsucessaoTurnos...
Generating H3BsucessaoTurnos...
Generating H4qualificacao...
Generating S1coberturaOtima...
Generating auxS5...
Generating S6a...
Generating S6b...
Generating auxS7...
Generating S7...
Model has been successfully generated
Writing problem data to `Testes/R1-i6/6.lp'...
120353 lines were written
CPX0000  Tried aggregator 2 times.
CPX0000  MIP Presolve eliminated 7381 rows and 28738 columns.
CPX0000  MIP Presolve modified 1887 coefficients.
CPX0000  Aggregator did 2 substitutions.
CPX0000  Reduced MIP has 3538 rows, 7249 columns, and 39736 nonzeros.
CPX0000  Reduced MIP has 7035 binaries, 214 generals, 0 SOSs, and 0 indicators.
CPX0000  Presolve time = 0.07 sec. (58.58 ticks)
CPX0000  Found incumbent of value 49700.000000 after 0.12 sec. (94.86 ticks)
[1m[30m[ZEN] [0m00:00:00 [1m[34m  49700.00[1m[32m  100.00%
[0mCPX0000  Probing time = 0.01 sec. (3.62 ticks)
CPX0000  Tried aggregator 1 time.
CPX0000  MIP Presolve eliminated 5 rows and 0 columns.
CPX0000  Reduced MIP has 3533 rows, 7249 columns, and 39721 nonzeros.
CPX0000  Reduced MIP has 7035 binaries, 214 generals, 0 SOSs, and 0 indicators.
CPX0000  Presolve time = 0.02 sec. (16.74 ticks)
CPX0000  Probing time = 0.01 sec. (3.42 ticks)
CPX0000  Clique table members: 4830.
CPX0000  MIP emphasis: balance optimality and feasibility.
CPX0000  MIP search method: dynamic search.
CPX0000  Parallel mode: none, using 1 thread.
CPX0000  Root relaxation solution time = 0.14 sec. (117.06 ticks)
CPX0000
CPX0000          Nodes                                         Cuts/
CPX0000     Node  Left     Objective  IInf  Best Integer    Best Bound    ItCnt     Gap
CPX0000
CPX0000  *     0+    0                        49700.0000        0.0000     1808  100.00%
CPX0000        0     0       50.0000   444    49700.0000       50.0000     1808   99.90%
CPX0000  *     0+    0                         2990.0000       50.0000     1808   98.33%
[1m[30m[ZEN] [0m00:00:00 [1m[34m   2990.00[1m[32m   98.33%
[0mCPX0000        0     0       50.0000    40     2990.0000      Cuts: 39     1998   98.33%
CPX0000        0     0       50.0000   151     2990.0000     Cuts: 143     2258   98.33%
CPX0000        0     0       50.0000    87     2990.0000      Cuts: 26     2399   98.33%
CPX0000        0     0       50.0000    80     2990.0000     Cuts: 197     2745   98.33%
CPX0000        0     0       50.0000   194     2990.0000     Cuts: 138     3323   98.33%
CPX0000  *     0+    0                          620.0000       50.0000     3323   91.94%
CPX0000  *     0+    0                          600.0000       50.0000     3323   91.67%
CPX0000  *     0+    0                          420.0000       50.0000     3323   88.10%
[1m[30m[ZEN] [0m00:00:01 [1m[34m    420.00[1m[32m   88.10%
[0mCPX0000  *     0+    0                          250.0000       50.0000     3323   80.00%
CPX0000  *     0+    0                          210.0000       50.0000     3323   76.19%
[1m[30m[ZEN] [0m00:00:02 [1m[34m    210.00[1m[32m   76.19%
[0mCPX0000        0     2       50.0000    12      210.0000       50.0000     3323   76.19%
CPX0000  Elapsed time = 3.00 sec. (2411.63 ticks, tree = 0.00 MB
CPX0000       23    25       50.0000    44      210.0000       50.0000     6057   76.19%
CPX0000       56    58       50.0000   125      210.0000       50.0000     8601   76.19%
CPX0000       98   100       75.0000    20      210.0000       50.0000    10571   76.19%
CPX0000      133   135      145.0000    99      210.0000       50.0000    12357   76.19%
CPX0000      164   160       50.0000   102      210.0000       50.0000    14357   76.19%
CPX0000      200   196       50.0000    52      210.0000       50.0000    16201   76.19%
CPX0000      222   218       50.0000    74      210.0000       50.0000    18548   76.19%
CPX0000      260   256       70.0000    21      210.0000       50.0000    20534   76.19%
CPX0000      282   278       90.0000    36      210.0000       50.0000    22193   76.19%
CPX0000      425   417       60.0000   179      210.0000       50.0000    27021   76.19%
CPX0000  Elapsed time = 7.11 sec. (5644.10 ticks, tree = 18.89 MB
CPX0000  *   507+  495                          200.0000       50.0000    30359   75.00%
[1m[30m[ZEN] [0m00:00:07 [1m[34m    200.00[1m[32m   75.00%
[0mCPX0000  *   509     0      integral     0      200.0000                  39078    0.00%
CPX0000
CPX0000  GUB cover cuts applied:  149
CPX0000  Clique cuts applied:  336
CPX0000  Cover cuts applied:  43
CPX0000  Mixed integer rounding cuts applied:  28
CPX0000  Zero-half cuts applied:  110
CPX0000  Gomory fractional cuts applied:  66
CPX0000
CPX0000  Root node processing (before b&c):
CPX0000    Real time             =    2.99 sec. (2401.78 ticks)
CPX0000  Sequential b&c:
CPX0000    Real time             =    8.75 sec. (6594.38 ticks)
CPX0000                            ------------
CPX0000  Total (root+branch&cut) =   11.73 sec. (8996.16 ticks)
H2 understaffing: 0
H3 shiftTypeSuccessions: 0
S1 optimalCoverage: 180
S2a consecutiveShift: 6450 = (420,10 )
S2b consecutiveWorkingDays: 9660 = ( 259,63 )
S3 consecutiveDaysOff: 5160 = ( 157,15 )
S4 preferences: 0
S5 completeWeekend: 0
S6 totalAssignments: 20
S7 totalWorkingWeekeends: 0
 

Cost Solution: 21470

      |M|T|W|T|F|S|S| |M|T|W|T|F|S|S| |M|T|W|T|F|S|S| |M|T|W|T|F|S|S|
-----------------------------------------------------------------------
HN_0  |N|N|N|-|D|-|-| |L|-|L|-|-|-|-| |D|-|L|N|-|-|-| |D|-|N|-|-|-|-|
HN_1  |L|-|E|-|E|L|L| |-|L|N|-|-|L|L| |-|L|-|E|L|-|-| |N|-|N|-|L|-|-|
HN_2  |N|-|-|N|-|E|E| |L|-|D|-|L|N|N| |N|N|-|L|L|-|-| |L|-|-|D|D|-|-|
HN_3  |E|-|D|-|-|E|L| |-|N|-|-|-|-|-| |E|L|L|L|L|-|-| |E|-|-|L|L|L|L|
HN_4  |-|-|E|L|-|-|-| |E|N|-|-|-|-|-| |E|-|-|D|-|-|-| |D|-|N|N|-|E|D|
HN_5  |-|-|-|L|-|-|-| |E|D|E|-|L|-|-| |-|-|-|-|D|-|-| |D|D|L|-|-|E|N|
NU_6  |E|-|L|L|-|D|E| |-|L|L|-|E|-|-| |N|N|-|E|N|-|-| |-|L|-|E|E|-|-|
NU_7  |-|-|-|-|D|-|-| |L|-|L|L|-|E|D| |D|D|-|L|N|-|-| |D|E|-|N|-|D|D|
NU_8  |L|L|L|L|L|N|N| |N|N|N|N|N|-|-| |D|-|E|D|D|E|E| |-|E|E|E|D|-|-|
NU_9  |D|D|E|D|N|-|-| |E|D|-|D|D|D|E| |E|E|D|D|L|N|N| |-|D|D|D|D|-|-|
NU_10 |D|N|-|E|E|-|-| |D|-|-|E|-|-|-| |L|N|N|-|E|-|-| |L|-|N|-|D|D|E|
NU_11 |-|-|-|D|E|-|-| |N|-|-|-|-|-|-| |-|E|E|D|-|D|L| |-|D|E|-|L|-|-|
NU_12 |-|E|-|E|E|E|D| |-|L|-|-|-|-|-| |-|L|-|N|-|-|-| |-|N|N|-|L|-|-|
NU_13 |-|L|L|-|E|-|-| |-|-|E|N|N|-|-| |-|-|-|-|L|-|-| |-|N|-|-|E|E|E|
NU_14 |D|-|N|N|-|-|-| |-|-|E|-|D|-|-| |E|-|E|-|N|-|-| |D|D|D|-|-|-|-|
NU_15 |E|N|-|-|N|-|-| |N|N|N|-|-|-|-| |D|N|-|-|-|L|L| |-|-|D|L|N|N|N|
NU_16 |-|-|-|N|-|-|-| |D|E|N|-|E|L|L| |-|-|-|E|E|D|D| |E|E|D|L|-|-|-|
CT_17 |N|N|N|N|N|-|-| |D|E|E|E|E|N|N| |-|D|D|E|D|-|-| |E|E|L|L|-|E|L|
CT_18 |D|E|D|D|D|-|-| |E|E|D|D|E|L|L| |L|L|L|L|L|L|L| |N|N|-|E|-|-|-|
CT_19 |N|-|N|-|-|-|-| |E|D|E|N|-|-|-| |-|-|-|-|-|-|-| |-|L|N|N|-|N|N|
CT_20 |-|D|E|D|D|E|D| |E|E|D|L|N|-|-| |E|D|D|D|E|E|L| |-|D|L|N|N|-|-|
CT_21 |-|L|L|-|D|-|-| |E|D|N|-|-|-|-| |L|L|N|N|-|D|D| |L|-|E|L|-|-|-|
CT_22 |-|N|-|N|N|N|N| |-|-|-|D|L|-|-| |N|-|L|-|-|-|-| |E|-|-|N|-|-|-|
CT_23 |-|D|N|-|L|-|-| |-|L|-|D|L|-|-| |-|-|L|N|-|-|-| |D|E|-|-|E|-|-|
CT_24 |N|-|D|L|L|-|-| |L|-|D|N|-|D|D| |-|E|N|N|-|-|-| |-|L|-|D|N|-|-|
CT_25 |-|E|D|E|E|-|-| |D|D|L|L|N|-|-| |D|E|E|D|D|E|N| |N|N|-|E|D|N|N|
CT_26 |L|-|-|E|-|-|-| |L|L|-|N|-|-|-| |-|-|-|L|N|N|N| |-|N|N|-|-|-|-|
CT_27 |N|-|-|L|-|-|-| |-|N|-|E|D|D|D| |L|N|-|-|N|-|-| |-|N|-|-|-|-|-|
CT_28 |L|-|-|-|L|L|N| |-|-|-|-|L|-|-| |N|-|L|-|E|-|-| |-|L|L|-|L|-|-|
TR_29 |N|N|-|-|-|-|-| |N|-|E|-|D|D|N| |-|-|N|-|D|-|-| |D|-|-|-|L|-|-|
TR_30 |E|D|E|L|L|-|-| |N|N|-|D|L|-|-| |D|D|L|L|-|E|D| |D|L|N|-|E|E|L|
TR_31 |D|N|-|N|-|-|-| |D|-|L|-|E|-|-| |L|-|-|-|E|L|N| |N|-|E|L|-|D|D|
TR_32 |E|E|D|D|E|E|L| |L|-|L|N|N|-|-| |N|-|E|D|E|E|E| |E|D|D|E|D|-|-|
TR_33 |-|L|-|-|D|-|-| |E|D|-|N|-|E|E| |-|-|N|-|L|-|-| |L|-|N|N|-|D|N|
TR_34 |D|L|N|-|-|N|N| |-|N|-|-|E|D|D| |-|-|D|L|N|-|-| |-|D|-|L|N|-|-|


Hard constraint violations
--------------------------

Minimal coverage constraints: 0
Required skill constraints: 0
Illegal shift type succession constraints: 0
Single assignment per day: 0


Cost per constraint type
------------------------

Total assignment constraints: 20
Consecutive constraints: 16110
Non working days constraints: 5160
Preferences: 0
Max working weekend: 0
Complete weekends: 0
Optimal coverage constraints: 180

------------------------

Total cost: 21470
